
Gurobi 11.0.1 (win64) logging started Wed Mar 13 20:01:01 2024

Set parameter LogFile to value "C:\Projetos\Job_Rotation_Algorithms\Outputs\GurobiLogs\gurobi_log-output-62_ros-c13-CostaMirallesModel-NoExtraConstraint-2.log"
Gurobi Optimizer version 11.0.1 build v11.0.1rc0 (win64 - Windows 10.0 (19045.2))

CPU model: 11th Gen Intel(R) Core(TM) i7-1165G7 @ 2.80GHz, instruction set [SSE2|AVX|AVX2|AVX512]
Thread count: 4 physical cores, 8 logical processors, using up to 1 threads


Gurobi 11.0.1 (win64) logging started Thu Mar 14 07:59:18 2024

Set parameter LogFile to value "C:\Projetos\Job_Rotation_Algorithms\Outputs\GurobiLogs\gurobi_log-output-62_ros-c13-CostaMirallesModel-NoExtraConstraint-2.log"
Gurobi Optimizer version 11.0.1 build v11.0.1rc0 (win64 - Windows 10.0 (19045.2))

CPU model: 11th Gen Intel(R) Core(TM) i7-1165G7 @ 2.80GHz, instruction set [SSE2|AVX|AVX2|AVX512]
Thread count: 4 physical cores, 8 logical processors, using up to 1 threads


Gurobi 11.0.1 (win64) logging started Fri Mar 15 00:36:44 2024

Set parameter LogFile to value "C:\Projetos\Job_Rotation_Algorithms\Outputs\GurobiLogs\gurobi_log-output-62_ros-c13-CostaMirallesModel-NoExtraConstraint-2.log"
Gurobi Optimizer version 11.0.1 build v11.0.1rc0 (win64 - Windows 10.0 (19045.2))

CPU model: 11th Gen Intel(R) Core(TM) i7-1165G7 @ 2.80GHz, instruction set [SSE2|AVX|AVX2|AVX512]
Thread count: 4 physical cores, 8 logical processors, using up to 1 threads


Gurobi 11.0.1 (win64) logging started Fri Mar 15 23:50:11 2024

Set parameter LogFile to value "C:\Projetos\Job_Rotation_Algorithms\Outputs\GurobiLogs\gurobi_log-output-62_ros-c13-CostaMirallesModel-NoExtraConstraint-2.log"
Gurobi Optimizer version 11.0.1 build v11.0.1rc0 (win64 - Windows 10.0 (19045.2))

CPU model: 11th Gen Intel(R) Core(TM) i7-1165G7 @ 2.80GHz, instruction set [SSE2|AVX|AVX2|AVX512]
Thread count: 4 physical cores, 8 logical processors, using up to 1 threads

WLS license 901039 - registered to Bitka Analytics
Optimize a model with 690 rows, 1881 columns and 19449 nonzeros
Model fingerprint: 0x13fb0f23
Variable types: 2 continuous, 1879 integer (1879 binary)
Coefficient statistics:
  Matrix range     [1e+00, 3e+01]
  Objective range  [1e+00, 1e+00]
  Bounds range     [1e+00, 3e+01]
  RHS range        [1e+00, 3e+01]
Presolve removed 45 rows and 559 columns
Presolve time: 0.22s
Presolved: 645 rows, 1322 columns, 11693 nonzeros
Variable types: 0 continuous, 1322 integer (1303 binary)

Root relaxation: objective 5.000000e+01, 800 iterations, 0.02 seconds (0.02 work units)

    Nodes    |    Current Node    |     Objective Bounds      |     Work
 Expl Unexpl |  Obj  Depth IntInf | Incumbent    BestBd   Gap | It/Node Time

     0     0   50.00000    0   28          -   50.00000      -     -    0s
     0     0   50.00000    0  218          -   50.00000      -     -    0s
     0     0   50.00000    0  194          -   50.00000      -     -    0s
     0     0   50.00000    0  192          -   50.00000      -     -    0s
     0     0   50.00000    0   48          -   50.00000      -     -    0s
     0     0   50.00000    0   60          -   50.00000      -     -    0s
     0     0   50.00000    0  100          -   50.00000      -     -    0s
     0     0   50.00000    0   81          -   50.00000      -     -    0s
     0     0   50.00000    0   53          -   50.00000      -     -    0s
     0     2   50.00000    0   50          -   50.00000      -     -    1s
   486   264   50.00000    9  277          -   50.00000      -  93.9    5s
   748   411   50.00000   19   66          -   50.00000      -  95.7   10s
   945   388 infeasible   31               -   50.00000      -  36.9   15s
  1522   222   50.00000   27   82          -   50.00000      -  48.6   20s
  2338   126   50.00000   44  137          -   50.00000      -  49.8   26s
  2739   116   50.00000   19  117          -   50.00000      -  51.6   30s
  4252   415 infeasible   32               -   50.00000      -  46.7   35s
  5451   481 infeasible   59               -   50.00000      -  46.4   40s
  6804   538   50.00000   22  143          -   50.00000      -  46.4   45s
  7736   572   50.00000   25  117          -   50.00000      -  48.5   50s
  8684   613   50.00000   33   83          -   50.00000      -  50.3   55s
  9841   670 infeasible   21               -   50.00000      -  51.4   60s
 10202   756 infeasible   34               -   50.00000      -  51.7   72s
 10649   759   50.00000   32   72          -   50.00000      -  52.6   75s
 11355   791   50.00000   29  119          -   50.00000      -  53.8   80s
 12100   888 infeasible   32               -   50.00000      -  55.9   85s
H12810   887                      34.0000000   50.00000  47.1%  57.0   89s
H12810   886                      36.0000000   50.00000  38.9%  57.0   89s
 12819   887 infeasible   21        36.00000   50.00000  38.9%  57.0   90s
H13060   923                      38.0000000   50.00000  31.6%  57.2   91s
H13074   928                      39.0000000   50.00000  28.2%  57.3   91s
H13126   916                      41.0000000   50.00000  22.0%  57.3   92s
 13462   939 infeasible   31        41.00000   50.00000  22.0%  57.7   95s
H13480   925                      43.0000000   50.00000  16.3%  57.8   95s
 13714   921 infeasible   28        43.00000   50.00000  16.3%  58.4  100s
 13928   948   50.00000   29   60   43.00000   50.00000  16.3%  59.0  105s
 14065   962   50.00000   24  106   43.00000   50.00000  16.3%  59.5  111s
 14134   967   50.00000   24   78   43.00000   50.00000  16.3%  59.9  115s
 14257   956   50.00000   28  121   43.00000   50.00000  16.3%  60.3  121s
 14321   950   50.00000   33  101   43.00000   50.00000  16.3%  60.7  125s
 14440   960 infeasible   35        43.00000   50.00000  16.3%  61.1  130s
 14538   965   50.00000   32   88   43.00000   50.00000  16.3%  61.4  135s
 14648   959   50.00000   33   86   43.00000   50.00000  16.3%  61.8  140s
 14943   958 infeasible   30        43.00000   50.00000  16.3%  62.6  145s
 15299   945 infeasible   42        43.00000   50.00000  16.3%  63.7  150s
 15514   909   50.00000   29   27   43.00000   50.00000  16.3%  64.6  155s
 15774   871   50.00000   21   83   43.00000   50.00000  16.3%  65.2  160s
 15996   913   49.70000   48   53   43.00000   50.00000  16.3%  65.2  172s
 16012   924   50.00000   23  113   43.00000   50.00000  16.3%  66.0  175s
 16568   794   49.00000   48   95   43.00000   50.00000  16.3%  65.7  180s
 16984   647   50.00000   33   95   43.00000   50.00000  16.3%  65.7  185s
 17321   531 infeasible   40        43.00000   50.00000  16.3%  66.0  190s
 17523   468 infeasible   40        43.00000   50.00000  16.3%  66.3  195s
 17945   329   50.00000   36   98   43.00000   50.00000  16.3%  66.5  200s
 18313   199   50.00000   39   89   43.00000   50.00000  16.3%  66.5  205s
 18906    80   50.00000   41   69   43.00000   50.00000  16.3%  66.6  210s
 19335    64 infeasible   41        43.00000   50.00000  16.3%  66.8  215s
 19849    96   50.00000   45  110   43.00000   50.00000  16.3%  67.1  220s
 20300    93   50.00000   48   78   43.00000   50.00000  16.3%  67.3  225s
 20855    94   50.00000   43   93   43.00000   50.00000  16.3%  67.4  230s
 21305   122 infeasible   41        43.00000   50.00000  16.3%  67.7  235s
 21809   155 infeasible   53        43.00000   50.00000  16.3%  68.2  240s
 22392   168   50.00000   31  152   43.00000   50.00000  16.3%  68.4  245s
 22821   194 infeasible   43        43.00000   50.00000  16.3%  68.6  250s
 23264   198   50.00000   48  129   43.00000   50.00000  16.3%  69.1  255s
 23676   202   50.00000   45  123   43.00000   50.00000  16.3%  69.4  260s
 24136   202   50.00000   52  142   43.00000   50.00000  16.3%  69.7  265s
 24626   196   48.00000   49   85   43.00000   50.00000  16.3%  70.0  270s
 25144   208 infeasible   46        43.00000   50.00000  16.3%  70.3  275s
 25623   191   50.00000   37   63   43.00000   50.00000  16.3%  70.3  280s
 25927   199   50.00000   39   76   43.00000   50.00000  16.3%  70.6  285s
 26409   178 infeasible   51        43.00000   50.00000  16.3%  70.7  290s
 27383   227   50.00000   43   85   43.00000   50.00000  16.3%  69.9  295s
 27945   224 infeasible   43        43.00000   50.00000  16.3%  69.9  300s
 28358   251   50.00000   43  135   43.00000   50.00000  16.3%  69.9  305s
 28567   261   50.00000   60  120   43.00000   50.00000  16.3%  70.2  310s
 29131   312 infeasible   48        43.00000   50.00000  16.3%  70.4  315s
 29752   474   50.00000   60  137   43.00000   50.00000  16.3%  70.5  320s
 30371   489   50.00000   55  106   43.00000   50.00000  16.3%  70.6  325s
 30865   479 infeasible   56        43.00000   50.00000  16.3%  70.7  330s
 31663   486 infeasible   55        43.00000   50.00000  16.3%  70.7  335s
 32126   473   50.00000   55  111   43.00000   50.00000  16.3%  70.9  340s
 32517   478   50.00000   55   71   43.00000   50.00000  16.3%  71.0  345s
 32963   474 infeasible   48        43.00000   50.00000  16.3%  71.3  350s
 33488   482   50.00000   44   82   43.00000   50.00000  16.3%  71.3  356s
 33626   484 infeasible   55        43.00000   50.00000  16.3%  71.6  360s
 34386   507   45.66350   51  120   43.00000   50.00000  16.3%  71.6  365s
 35057   493   48.00000   58   94   43.00000   50.00000  16.3%  71.7  370s
 35672   513 infeasible   50        43.00000   50.00000  16.3%  71.8  375s
 36228   550   49.00000   49  118   43.00000   50.00000  16.3%  72.0  382s
 36312   532   50.00000   44   97   43.00000   50.00000  16.3%  72.2  385s
 36839   534   50.00000   45  127   43.00000   50.00000  16.3%  72.4  390s
 37755   592   50.00000   50  108   43.00000   50.00000  16.3%  72.3  395s
 38383   577 infeasible   45        43.00000   50.00000  16.3%  72.4  400s
 38782   550   49.00000   42   25   43.00000   50.00000  16.3%  72.6  405s
 39449   545   50.00000   51  108   43.00000   50.00000  16.3%  72.4  410s
 39952   564 infeasible   52        43.00000   50.00000  16.3%  72.6  415s
 40349   557   50.00000   52  106   43.00000   50.00000  16.3%  72.7  420s
 40893   561 infeasible   52        43.00000   50.00000  16.3%  72.8  425s
 41429   523   50.00000   38  146   43.00000   50.00000  16.3%  73.0  430s
 41685   509 infeasible   45        43.00000   50.00000  16.3%  73.1  435s
 42068   540   50.00000   43  118   43.00000   50.00000  16.3%  73.2  442s
 42203   531 infeasible   55        43.00000   50.00000  16.3%  73.3  445s
 42666   544   50.00000   42  109   43.00000   50.00000  16.3%  73.6  450s
 43456   565 infeasible   48        43.00000   50.00000  16.3%  73.6  455s
 44285   556   50.00000   38   98   43.00000   50.00000  16.3%  73.5  460s
 45035   587   50.00000   47  145   43.00000   50.00000  16.3%  73.6  465s
 45272   583 infeasible   46        43.00000   50.00000  16.3%  73.7  470s
 45901   617   49.89947   46  129   43.00000   50.00000  16.3%  73.8  475s
 46469   637   48.83129   40  122   43.00000   50.00000  16.3%  74.0  480s
 47367   710 infeasible   59        43.00000   50.00000  16.3%  74.0  485s
 47871   731 infeasible   53        43.00000   50.00000  16.3%  74.1  490s
 48496   723   49.00000   40   61   43.00000   50.00000  16.3%  74.1  495s
 48688   731   50.00000   46  111   43.00000   50.00000  16.3%  74.1  500s
 48983   732 infeasible   48        43.00000   50.00000  16.3%  74.3  505s
 49875   725 infeasible   43        43.00000   50.00000  16.3%  74.2  510s
 50600   745 infeasible   50        43.00000   50.00000  16.3%  74.3  515s
 51395   821   50.00000   45   99   43.00000   50.00000  16.3%  74.2  520s
 52461   846   46.31263   54  105   43.00000   50.00000  16.3%  74.0  525s
 53070   881 infeasible   52        43.00000   50.00000  16.3%  73.9  530s
 53761   880   50.00000   50   94   43.00000   50.00000  16.3%  73.9  535s
 54363   916   50.00000   42   56   43.00000   50.00000  16.3%  73.8  540s
 55053   928   49.00000   43   79   43.00000   50.00000  16.3%  73.7  545s
 55542   929   50.00000   47   92   43.00000   50.00000  16.3%  73.8  550s
 56269   904   50.00000   53  107   43.00000   50.00000  16.3%  73.8  555s
 56971   894   50.00000   48  146   43.00000   50.00000  16.3%  73.9  560s
 57164   899 infeasible   46        43.00000   50.00000  16.3%  74.1  565s
 57845   944   50.00000   54   89   43.00000   50.00000  16.3%  74.2  570s
 58033   919   50.00000   46  160   43.00000   50.00000  16.3%  74.3  575s
 58255   912   50.00000   37   84   43.00000   50.00000  16.3%  74.6  580s
 58849   952 infeasible   49        43.00000   50.00000  16.3%  74.8  585s
 59718   941 infeasible   49        43.00000   50.00000  16.3%  74.7  590s
 60353   968   50.00000   49   99   43.00000   50.00000  16.3%  74.8  597s
 60431   960   50.00000   42   76   43.00000   50.00000  16.3%  74.9  600s
 60867   978 infeasible   51        43.00000   50.00000  16.3%  75.0  605s
 61788   968   50.00000   44  112   43.00000   50.00000  16.3%  74.9  610s
 62461   986   50.00000   46   48   43.00000   50.00000  16.3%  74.8  615s
 63168   967   50.00000   46  134   43.00000   50.00000  16.3%  74.9  620s
 63894   975   50.00000   47   96   43.00000   50.00000  16.3%  74.9  625s
 64416  1011   50.00000   48  107   43.00000   50.00000  16.3%  74.9  630s
 65039  1006 infeasible   61        43.00000   50.00000  16.3%  75.0  635s
 65530   976 infeasible   45        43.00000   50.00000  16.3%  75.1  640s
 66092   983   50.00000   61  141   43.00000   50.00000  16.3%  75.1  645s
 66580   947   50.00000   41  164   43.00000   50.00000  16.3%  75.2  650s
 67094   933   50.00000   39  120   43.00000   50.00000  16.3%  75.3  655s
 67590   912 infeasible   53        43.00000   50.00000  16.3%  75.4  660s
 68091   904 infeasible   44        43.00000   50.00000  16.3%  75.5  665s
 68526   946   49.81818   43   80   43.00000   50.00000  16.3%  75.6  670s
 68920   941 infeasible   49        43.00000   50.00000  16.3%  75.6  675s
 69428   924 infeasible   55        43.00000   50.00000  16.3%  75.8  680s
 69908   880   50.00000   43   83   43.00000   50.00000  16.3%  75.8  685s
 70164   878   50.00000   42  105   43.00000   50.00000  16.3%  75.8  690s
 70931   864   50.00000   43  133   43.00000   50.00000  16.3%  75.7  695s
 71621   840 infeasible   54        43.00000   50.00000  16.3%  75.7  700s
 72789   624     cutoff   54        43.00000   49.00000  14.0%  75.4  705s
 73861   229 infeasible   40        43.00000   47.00000  9.30%  75.4  710s

Cutting planes:
  Cover: 39
  Implied bound: 1
  Clique: 58
  StrongCG: 1
  Flow cover: 18
  GUB cover: 5
  Zero half: 3
  RLT: 9
  Relax-and-lift: 2
  BQP: 1

Explored 74811 nodes (5701427 simplex iterations) in 713.41 seconds (404.56 work units)
Thread count was 1 (of 8 available processors)

Solution count 6: 43 41 39 ... 34

Optimal solution found (tolerance 1.00e-03)
Best objective 4.300000000000e+01, best bound 4.300000000000e+01, gap 0.0000%
